benchmark/results/graph__10-1000-0.10-03_2/graph__10-1000-0.10-03_2_Quinton_Benders_master.lp
\ This file has been generated by DOcplex
\ ENCODING=ISO-8859-1
\Problem name: Quinton Benders_master

Maximize
 obj: z
Subject To
 c1: m_a0_proc_0 + m_a0_proc_1 + m_a0_proc_2 = 1
 c2: m_a1_proc_0 + m_a1_proc_1 + m_a1_proc_2 = 1
 c3: m_a2_proc_0 + m_a2_proc_2 = 1
 c4: m_a3_proc_0 + m_a3_proc_1 = 1
 c5: m_a4_proc_0 + m_a4_proc_1 + m_a4_proc_2 = 1
 c6: m_a5_proc_0 + m_a5_proc_2 = 1
 c7: m_a6_proc_1 + m_a6_proc_2 = 1
 c8: m_a7_proc_1 + m_a7_proc_2 = 1
 c9: m_a8_proc_0 + m_a8_proc_1 + m_a8_proc_2 = 1
 c10: m_a9_proc_0 + m_a9_proc_1 + m_a9_proc_2 = 1
 c11: K_a0_a1 + K_a1_a0 = 1
 c12: K_a0_a1 + K_a1_a0 = 1
 c13: K_a0_a2 + K_a2_a0 = 1
 c14: K_a0_a2 + K_a2_a0 = 1
 c15: K_a0_a3 + K_a3_a0 = 1
 c16: K_a0_a3 + K_a3_a0 = 1
 c17: K_a0_a4 + K_a4_a0 = 1
 c18: K_a0_a4 + K_a4_a0 = 1
 c19: K_a0_a5 + K_a5_a0 = 1
 c20: K_a0_a5 + K_a5_a0 = 1
 c21: K_a0_a6 + K_a6_a0 = 1
 c22: K_a0_a6 + K_a6_a0 = 1
 c23: K_a0_a7 + K_a7_a0 = 1
 c24: K_a0_a7 + K_a7_a0 = 1
 c25: K_a0_a8 + K_a8_a0 = 1
 c26: K_a0_a8 + K_a8_a0 = 1
 c27: K_a0_a9 + K_a9_a0 = 1
 c28: K_a0_a9 + K_a9_a0 = 1
 c29: K_a1_a2 + K_a2_a1 = 1
 c30: K_a1_a2 + K_a2_a1 = 1
 c31: K_a1_a3 + K_a3_a1 = 1
 c32: K_a1_a3 + K_a3_a1 = 1
 c33: K_a1_a4 + K_a4_a1 = 1
 c34: K_a1_a4 + K_a4_a1 = 1
 c35: K_a1_a5 + K_a5_a1 = 1
 c36: K_a1_a5 + K_a5_a1 = 1
 c37: K_a1_a6 + K_a6_a1 = 1
 c38: K_a1_a6 + K_a6_a1 = 1
 c39: K_a1_a7 + K_a7_a1 = 1
 c40: K_a1_a7 + K_a7_a1 = 1
 c41: K_a1_a8 + K_a8_a1 = 1
 c42: K_a1_a8 + K_a8_a1 = 1
 c43: K_a1_a9 + K_a9_a1 = 1
 c44: K_a1_a9 + K_a9_a1 = 1
 c45: K_a2_a3 + K_a3_a2 = 1
 c46: K_a2_a3 + K_a3_a2 = 1
 c47: K_a2_a4 + K_a4_a2 = 1
 c48: K_a2_a4 + K_a4_a2 = 1
 c49: K_a2_a5 + K_a5_a2 = 1
 c50: K_a2_a5 + K_a5_a2 = 1
 c51: K_a2_a6 + K_a6_a2 = 1
 c52: K_a2_a6 + K_a6_a2 = 1
 c53: K_a2_a7 + K_a7_a2 = 1
 c54: K_a2_a7 + K_a7_a2 = 1
 c55: K_a2_a8 + K_a8_a2 = 1
 c56: K_a2_a8 + K_a8_a2 = 1
 c57: K_a2_a9 + K_a9_a2 = 1
 c58: K_a2_a9 + K_a9_a2 = 1
 c59: K_a3_a4 + K_a4_a3 = 1
 c60: K_a3_a4 + K_a4_a3 = 1
 c61: K_a3_a5 + K_a5_a3 = 1
 c62: K_a3_a5 + K_a5_a3 = 1
 c63: K_a3_a6 + K_a6_a3 = 1
 c64: K_a3_a6 + K_a6_a3 = 1
 c65: K_a3_a7 + K_a7_a3 = 1
 c66: K_a3_a7 + K_a7_a3 = 1
 c67: K_a3_a8 + K_a8_a3 = 1
 c68: K_a3_a8 + K_a8_a3 = 1
 c69: K_a3_a9 + K_a9_a3 = 1
 c70: K_a3_a9 + K_a9_a3 = 1
 c71: K_a4_a5 + K_a5_a4 = 1
 c72: K_a4_a5 + K_a5_a4 = 1
 c73: K_a4_a6 + K_a6_a4 = 1
 c74: K_a4_a6 + K_a6_a4 = 1
 c75: K_a4_a7 + K_a7_a4 = 1
 c76: K_a4_a7 + K_a7_a4 = 1
 c77: K_a4_a8 + K_a8_a4 = 1
 c78: K_a4_a8 + K_a8_a4 = 1
 c79: K_a4_a9 + K_a9_a4 = 1
 c80: K_a4_a9 + K_a9_a4 = 1
 c81: K_a5_a6 + K_a6_a5 = 1
 c82: K_a5_a6 + K_a6_a5 = 1
 c83: K_a5_a7 + K_a7_a5 = 1
 c84: K_a5_a7 + K_a7_a5 = 1
 c85: K_a5_a8 + K_a8_a5 = 1
 c86: K_a5_a8 + K_a8_a5 = 1
 c87: K_a5_a9 + K_a9_a5 = 1
 c88: K_a5_a9 + K_a9_a5 = 1
 c89: K_a6_a7 + K_a7_a6 = 1
 c90: K_a6_a7 + K_a7_a6 = 1
 c91: K_a6_a8 + K_a8_a6 = 1
 c92: K_a6_a8 + K_a8_a6 = 1
 c93: K_a6_a9 + K_a9_a6 = 1
 c94: K_a6_a9 + K_a9_a6 = 1
 c95: K_a7_a8 + K_a8_a7 = 1
 c96: K_a7_a8 + K_a8_a7 = 1
 c97: K_a7_a9 + K_a9_a7 = 1
 c98: K_a7_a9 + K_a9_a7 = 1
 c99: K_a8_a9 + K_a9_a8 = 1
 c100: K_a8_a9 + K_a9_a8 = 1
 c101: z <= 99999999989999992832
 c102: - 1294 m_a0_proc_0 + w_a2 - w_a0 >= -1293.882980647495
 c103: - 1294 m_a0_proc_0 + w_a7 - w_a0 >= -1293.882980647495
 c104: - 1294 m_a0_proc_0 + w_a6 - w_a0 >= -1293.882980647495
 c105: K_a0_a1 - 1294 m_a0_proc_0 - 1294 m_a1_proc_0 + w_a1 - w_a0 >= 
       -2587.882980647495
 c106: K_a0_a2 - 1294 m_a0_proc_0 - 1294 m_a2_proc_0 + w_a2 - w_a0 >= 
       -2587.882980647495
 c107: K_a0_a3 - 1294 m_a0_proc_0 - 1294 m_a3_proc_0 + w_a3 - w_a0 >= 
       -2587.882980647495
 c108: K_a0_a4 - 1294 m_a0_proc_0 - 1294 m_a4_proc_0 + w_a4 - w_a0 >= 
       -2587.882980647495
 c109: K_a0_a5 - 1294 m_a0_proc_0 - 1294 m_a5_proc_0 + w_a5 - w_a0 >= 
       -2587.882980647495
 c110: K_a0_a8 - 1294 m_a0_proc_0 - 1294 m_a8_proc_0 + w_a8 - w_a0 >= 
       -2587.882980647495
 c111: K_a0_a9 - 1294 m_a0_proc_0 - 1294 m_a9_proc_0 + w_a9 - w_a0 >= 
       -2587.882980647495
 c112: - 1294 m_a0_proc_1 + w_a2 - w_a0 >= -1293.922680412371
 c113: - 1294 m_a0_proc_1 + w_a7 - w_a0 >= -1293.922680412371
 c114: - 1294 m_a0_proc_1 + w_a6 - w_a0 >= -1293.922680412371
 c115: K_a0_a1 - 1294 m_a0_proc_1 - 1294 m_a1_proc_1 + w_a1 - w_a0 >= 
       -2587.922680412371
 c116: K_a0_a3 - 1294 m_a0_proc_1 - 1294 m_a3_proc_1 + w_a3 - w_a0 >= 
       -2587.922680412371
 c117: K_a0_a4 - 1294 m_a0_proc_1 - 1294 m_a4_proc_1 + w_a4 - w_a0 >= 
       -2587.922680412371
 c118: K_a0_a6 - 1294 m_a0_proc_1 - 1294 m_a6_proc_1 + w_a6 - w_a0 >= 
       -2587.922680412371
 c119: K_a0_a7 - 1294 m_a0_proc_1 - 1294 m_a7_proc_1 + w_a7 - w_a0 >= 
       -2587.922680412371
 c120: K_a0_a8 - 1294 m_a0_proc_1 - 1294 m_a8_proc_1 + w_a8 - w_a0 >= 
       -2587.922680412371
 c121: K_a0_a9 - 1294 m_a0_proc_1 - 1294 m_a9_proc_1 + w_a9 - w_a0 >= 
       -2587.922680412371
 c122: - 1294 m_a0_proc_2 + w_a2 - w_a0 >= -1293.931090613131
 c123: - 1294 m_a0_proc_2 + w_a7 - w_a0 >= -1293.931090613131
 c124: - 1294 m_a0_proc_2 + w_a6 - w_a0 >= -1293.931090613131
 c125: K_a0_a1 - 1294 m_a0_proc_2 - 1294 m_a1_proc_2 + w_a1 - w_a0 >= 
       -2587.931090613131
 c126: K_a0_a2 - 1294 m_a0_proc_2 - 1294 m_a2_proc_2 + w_a2 - w_a0 >= 
       -2587.931090613131
 c127: K_a0_a4 - 1294 m_a0_proc_2 - 1294 m_a4_proc_2 + w_a4 - w_a0 >= 
       -2587.931090613131
 c128: K_a0_a5 - 1294 m_a0_proc_2 - 1294 m_a5_proc_2 + w_a5 - w_a0 >= 
       -2587.931090613131
 c129: K_a0_a6 - 1294 m_a0_proc_2 - 1294 m_a6_proc_2 + w_a6 - w_a0 >= 
       -2587.931090613131
 c130: K_a0_a7 - 1294 m_a0_proc_2 - 1294 m_a7_proc_2 + w_a7 - w_a0 >= 
       -2587.931090613131
 c131: K_a0_a8 - 1294 m_a0_proc_2 - 1294 m_a8_proc_2 + w_a8 - w_a0 >= 
       -2587.931090613131
 c132: K_a0_a9 - 1294 m_a0_proc_2 - 1294 m_a9_proc_2 + w_a9 - w_a0 >= 
       -2587.931090613131
 c133: - 1294 m_a1_proc_0 + w_a0 - w_a1 >= -1293.906493036716
 c134: K_a1_a0 - 1294 m_a0_proc_0 - 1294 m_a1_proc_0 + w_a0 - w_a1 >= 
       -2587.906493036715
 c135: K_a1_a2 - 1294 m_a1_proc_0 - 1294 m_a2_proc_0 + w_a2 - w_a1 >= 
       -2587.906493036715
 c136: K_a1_a3 - 1294 m_a1_proc_0 - 1294 m_a3_proc_0 + w_a3 - w_a1 >= 
       -2587.906493036715
 c137: K_a1_a4 - 1294 m_a1_proc_0 - 1294 m_a4_proc_0 + w_a4 - w_a1 >= 
       -2587.906493036715
 c138: K_a1_a5 - 1294 m_a1_proc_0 - 1294 m_a5_proc_0 + w_a5 - w_a1 >= 
       -2587.906493036715
 c139: K_a1_a8 - 1294 m_a1_proc_0 - 1294 m_a8_proc_0 + w_a8 - w_a1 >= 
       -2587.906493036715
 c140: K_a1_a9 - 1294 m_a1_proc_0 - 1294 m_a9_proc_0 + w_a9 - w_a1 >= 
       -2587.906493036715
 c141: - 1294 m_a1_proc_1 + w_a0 - w_a1 >= -1293.932537529390
 c142: K_a1_a0 - 1294 m_a0_proc_1 - 1294 m_a1_proc_1 + w_a0 - w_a1 >= 
       -2587.932537529391
 c143: K_a1_a3 - 1294 m_a1_proc_1 - 1294 m_a3_proc_1 + w_a3 - w_a1 >= 
       -2587.932537529391
 c144: K_a1_a4 - 1294 m_a1_proc_1 - 1294 m_a4_proc_1 + w_a4 - w_a1 >= 
       -2587.932537529391
 c145: K_a1_a6 - 1294 m_a1_proc_1 - 1294 m_a6_proc_1 + w_a6 - w_a1 >= 
       -2587.932537529391
 c146: K_a1_a7 - 1294 m_a1_proc_1 - 1294 m_a7_proc_1 + w_a7 - w_a1 >= 
       -2587.932537529391
 c147: K_a1_a8 - 1294 m_a1_proc_1 - 1294 m_a8_proc_1 + w_a8 - w_a1 >= 
       -2587.932537529391
 c148: K_a1_a9 - 1294 m_a1_proc_1 - 1294 m_a9_proc_1 + w_a9 - w_a1 >= 
       -2587.932537529391
 c149: - 1294 m_a1_proc_2 + w_a0 - w_a1 >= -1293.887230964008
 c150: K_a1_a0 - 1294 m_a0_proc_2 - 1294 m_a1_proc_2 + w_a0 - w_a1 >= 
       -2587.887230964008
 c151: K_a1_a2 - 1294 m_a1_proc_2 - 1294 m_a2_proc_2 + w_a2 - w_a1 >= 
       -2587.887230964008
 c152: K_a1_a4 - 1294 m_a1_proc_2 - 1294 m_a4_proc_2 + w_a4 - w_a1 >= 
       -2587.887230964008
 c153: K_a1_a5 - 1294 m_a1_proc_2 - 1294 m_a5_proc_2 + w_a5 - w_a1 >= 
       -2587.887230964008
 c154: K_a1_a6 - 1294 m_a1_proc_2 - 1294 m_a6_proc_2 + w_a6 - w_a1 >= 
       -2587.887230964008
 c155: K_a1_a7 - 1294 m_a1_proc_2 - 1294 m_a7_proc_2 + w_a7 - w_a1 >= 
       -2587.887230964008
 c156: K_a1_a8 - 1294 m_a1_proc_2 - 1294 m_a8_proc_2 + w_a8 - w_a1 >= 
       -2587.887230964008
 c157: K_a1_a9 - 1294 m_a1_proc_2 - 1294 m_a9_proc_2 + w_a9 - w_a1 >= 
       -2587.887230964008
 c158: - 1294 m_a2_proc_0 + w_a1 - w_a2 >= -1294.954874299150
 c159: - 1294 m_a2_proc_0 + w_a6 - w_a2 >= -1294.954874299150
 c160: - 1294 m_a2_proc_0 + w_a3 - w_a2 >= -1294.954874299150
 c161: K_a2_a0 - 1294 m_a0_proc_0 - 1294 m_a2_proc_0 + w_a0 - w_a2 >= 
       -2587.954874299150
 c162: K_a2_a1 - 1294 m_a1_proc_0 - 1294 m_a2_proc_0 + w_a1 - w_a2 >= 
       -2587.954874299150
 c163: K_a2_a3 - 1294 m_a2_proc_0 - 1294 m_a3_proc_0 + w_a3 - w_a2 >= 
       -2587.954874299150
 c164: K_a2_a4 - 1294 m_a2_proc_0 - 1294 m_a4_proc_0 + w_a4 - w_a2 >= 
       -2587.954874299150
 c165: K_a2_a5 - 1294 m_a2_proc_0 - 1294 m_a5_proc_0 + w_a5 - w_a2 >= 
       -2587.954874299150
 c166: K_a2_a8 - 1294 m_a2_proc_0 - 1294 m_a8_proc_0 + w_a8 - w_a2 >= 
       -2587.954874299150
 c167: K_a2_a9 - 1294 m_a2_proc_0 - 1294 m_a9_proc_0 + w_a9 - w_a2 >= 
       -2587.954874299150
 c168: - 1294 m_a2_proc_2 + w_a1 - w_a2 >= -1294.913818050280
 c169: - 1294 m_a2_proc_2 + w_a6 - w_a2 >= -1294.913818050280
 c170: - 1294 m_a2_proc_2 + w_a3 - w_a2 >= -1294.913818050280
 c171: K_a2_a0 - 1294 m_a0_proc_2 - 1294 m_a2_proc_2 + w_a0 - w_a2 >= 
       -2587.913818050280
 c172: K_a2_a1 - 1294 m_a1_proc_2 - 1294 m_a2_proc_2 + w_a1 - w_a2 >= 
       -2587.913818050280
 c173: K_a2_a4 - 1294 m_a2_proc_2 - 1294 m_a4_proc_2 + w_a4 - w_a2 >= 
       -2587.913818050280
 c174: K_a2_a5 - 1294 m_a2_proc_2 - 1294 m_a5_proc_2 + w_a5 - w_a2 >= 
       -2587.913818050280
 c175: K_a2_a6 - 1294 m_a2_proc_2 - 1294 m_a6_proc_2 + w_a6 - w_a2 >= 
       -2587.913818050280
 c176: K_a2_a7 - 1294 m_a2_proc_2 - 1294 m_a7_proc_2 + w_a7 - w_a2 >= 
       -2587.913818050280
 c177: K_a2_a8 - 1294 m_a2_proc_2 - 1294 m_a8_proc_2 + w_a8 - w_a2 >= 
       -2587.913818050280
 c178: K_a2_a9 - 1294 m_a2_proc_2 - 1294 m_a9_proc_2 + w_a9 - w_a2 >= 
       -2587.913818050280
 c179: - 1294 m_a3_proc_0 + w_a0 - w_a3 >= -1294.938234762163
 c180: - 1294 m_a3_proc_0 + w_a5 - w_a3 >= -1294.938234762163
 c181: - 1294 m_a3_proc_0 + w_a4 - w_a3 >= -1293.938234762163
 c182: K_a3_a0 - 1294 m_a0_proc_0 - 1294 m_a3_proc_0 + w_a0 - w_a3 >= 
       -2587.938234762163
 c183: K_a3_a1 - 1294 m_a1_proc_0 - 1294 m_a3_proc_0 + w_a1 - w_a3 >= 
       -2587.938234762163
 c184: K_a3_a2 - 1294 m_a2_proc_0 - 1294 m_a3_proc_0 + w_a2 - w_a3 >= 
       -2587.938234762163
 c185: K_a3_a4 - 1294 m_a3_proc_0 - 1294 m_a4_proc_0 + w_a4 - w_a3 >= 
       -2587.938234762163
 c186: K_a3_a5 - 1294 m_a3_proc_0 - 1294 m_a5_proc_0 + w_a5 - w_a3 >= 
       -2587.938234762163
 c187: K_a3_a8 - 1294 m_a3_proc_0 - 1294 m_a8_proc_0 + w_a8 - w_a3 >= 
       -2587.938234762163
 c188: K_a3_a9 - 1294 m_a3_proc_0 - 1294 m_a9_proc_0 + w_a9 - w_a3 >= 
       -2587.938234762163
 c189: - 1294 m_a3_proc_1 + w_a0 - w_a3 >= -1294.921685657443
 c190: - 1294 m_a3_proc_1 + w_a5 - w_a3 >= -1294.921685657443
 c191: - 1294 m_a3_proc_1 + w_a4 - w_a3 >= -1293.921685657443
 c192: K_a3_a0 - 1294 m_a0_proc_1 - 1294 m_a3_proc_1 + w_a0 - w_a3 >= 
       -2587.921685657443
 c193: K_a3_a1 - 1294 m_a1_proc_1 - 1294 m_a3_proc_1 + w_a1 - w_a3 >= 
       -2587.921685657443
 c194: K_a3_a4 - 1294 m_a3_proc_1 - 1294 m_a4_proc_1 + w_a4 - w_a3 >= 
       -2587.921685657443
 c195: K_a3_a6 - 1294 m_a3_proc_1 - 1294 m_a6_proc_1 + w_a6 - w_a3 >= 
       -2587.921685657443
 c196: K_a3_a7 - 1294 m_a3_proc_1 - 1294 m_a7_proc_1 + w_a7 - w_a3 >= 
       -2587.921685657443
 c197: K_a3_a8 - 1294 m_a3_proc_1 - 1294 m_a8_proc_1 + w_a8 - w_a3 >= 
       -2587.921685657443
 c198: K_a3_a9 - 1294 m_a3_proc_1 - 1294 m_a9_proc_1 + w_a9 - w_a3 >= 
       -2587.921685657443
 c199: - 1294 m_a4_proc_0 + w_a2 - w_a4 >= -1293.910200759631
 c200: K_a4_a0 - 1294 m_a0_proc_0 - 1294 m_a4_proc_0 + w_a0 - w_a4 >= 
       -2587.910200759631
 c201: K_a4_a1 - 1294 m_a1_proc_0 - 1294 m_a4_proc_0 + w_a1 - w_a4 >= 
       -2587.910200759631
 c202: K_a4_a2 - 1294 m_a2_proc_0 - 1294 m_a4_proc_0 + w_a2 - w_a4 >= 
       -2587.910200759631
 c203: K_a4_a3 - 1294 m_a3_proc_0 - 1294 m_a4_proc_0 + w_a3 - w_a4 >= 
       -2587.910200759631
 c204: K_a4_a5 - 1294 m_a4_proc_0 - 1294 m_a5_proc_0 + w_a5 - w_a4 >= 
       -2587.910200759631
 c205: K_a4_a8 - 1294 m_a4_proc_0 - 1294 m_a8_proc_0 + w_a8 - w_a4 >= 
       -2587.910200759631
 c206: K_a4_a9 - 1294 m_a4_proc_0 - 1294 m_a9_proc_0 + w_a9 - w_a4 >= 
       -2587.910200759631
 c207: - 1294 m_a4_proc_1 + w_a2 - w_a4 >= -1293.892928196781
 c208: K_a4_a0 - 1294 m_a0_proc_1 - 1294 m_a4_proc_1 + w_a0 - w_a4 >= 
       -2587.892928196781
 c209: K_a4_a1 - 1294 m_a1_proc_1 - 1294 m_a4_proc_1 + w_a1 - w_a4 >= 
       -2587.892928196781
 c210: K_a4_a3 - 1294 m_a3_proc_1 - 1294 m_a4_proc_1 + w_a3 - w_a4 >= 
       -2587.892928196781
 c211: K_a4_a6 - 1294 m_a4_proc_1 - 1294 m_a6_proc_1 + w_a6 - w_a4 >= 
       -2587.892928196781
 c212: K_a4_a7 - 1294 m_a4_proc_1 - 1294 m_a7_proc_1 + w_a7 - w_a4 >= 
       -2587.892928196781
 c213: K_a4_a8 - 1294 m_a4_proc_1 - 1294 m_a8_proc_1 + w_a8 - w_a4 >= 
       -2587.892928196781
 c214: K_a4_a9 - 1294 m_a4_proc_1 - 1294 m_a9_proc_1 + w_a9 - w_a4 >= 
       -2587.892928196781
 c215: - 1294 m_a4_proc_2 + w_a2 - w_a4 >= -1293.911376379092
 c216: K_a4_a0 - 1294 m_a0_proc_2 - 1294 m_a4_proc_2 + w_a0 - w_a4 >= 
       -2587.911376379092
 c217: K_a4_a1 - 1294 m_a1_proc_2 - 1294 m_a4_proc_2 + w_a1 - w_a4 >= 
       -2587.911376379092
 c218: K_a4_a2 - 1294 m_a2_proc_2 - 1294 m_a4_proc_2 + w_a2 - w_a4 >= 
       -2587.911376379092
 c219: K_a4_a5 - 1294 m_a4_proc_2 - 1294 m_a5_proc_2 + w_a5 - w_a4 >= 
       -2587.911376379092
 c220: K_a4_a6 - 1294 m_a4_proc_2 - 1294 m_a6_proc_2 + w_a6 - w_a4 >= 
       -2587.911376379092
 c221: K_a4_a7 - 1294 m_a4_proc_2 - 1294 m_a7_proc_2 + w_a7 - w_a4 >= 
       -2587.911376379092
 c222: K_a4_a8 - 1294 m_a4_proc_2 - 1294 m_a8_proc_2 + w_a8 - w_a4 >= 
       -2587.911376379092
 c223: K_a4_a9 - 1294 m_a4_proc_2 - 1294 m_a9_proc_2 + w_a9 - w_a4 >= 
       -2587.911376379092
 c224: - 1294 m_a5_proc_0 + w_a1 - w_a5 >= -1293.928739374209
 c225: K_a5_a0 - 1294 m_a0_proc_0 - 1294 m_a5_proc_0 + w_a0 - w_a5 >= 
       -2587.928739374209
 c226: K_a5_a1 - 1294 m_a1_proc_0 - 1294 m_a5_proc_0 + w_a1 - w_a5 >= 
       -2587.928739374209
 c227: K_a5_a2 - 1294 m_a2_proc_0 - 1294 m_a5_proc_0 + w_a2 - w_a5 >= 
       -2587.928739374209
 c228: K_a5_a3 - 1294 m_a3_proc_0 - 1294 m_a5_proc_0 + w_a3 - w_a5 >= 
       -2587.928739374209
 c229: K_a5_a4 - 1294 m_a4_proc_0 - 1294 m_a5_proc_0 + w_a4 - w_a5 >= 
       -2587.928739374209
 c230: K_a5_a8 - 1294 m_a5_proc_0 - 1294 m_a8_proc_0 + w_a8 - w_a5 >= 
       -2587.928739374209
 c231: K_a5_a9 - 1294 m_a5_proc_0 - 1294 m_a9_proc_0 + w_a9 - w_a5 >= 
       -2587.928739374209
 c232: - 1294 m_a5_proc_2 + w_a1 - w_a5 >= -1293.909748598300
 c233: K_a5_a0 - 1294 m_a0_proc_2 - 1294 m_a5_proc_2 + w_a0 - w_a5 >= 
       -2587.909748598300
 c234: K_a5_a1 - 1294 m_a1_proc_2 - 1294 m_a5_proc_2 + w_a1 - w_a5 >= 
       -2587.909748598300
 c235: K_a5_a2 - 1294 m_a2_proc_2 - 1294 m_a5_proc_2 + w_a2 - w_a5 >= 
       -2587.909748598300
 c236: K_a5_a4 - 1294 m_a4_proc_2 - 1294 m_a5_proc_2 + w_a4 - w_a5 >= 
       -2587.909748598300
 c237: K_a5_a6 - 1294 m_a5_proc_2 - 1294 m_a6_proc_2 + w_a6 - w_a5 >= 
       -2587.909748598300
 c238: K_a5_a7 - 1294 m_a5_proc_2 - 1294 m_a7_proc_2 + w_a7 - w_a5 >= 
       -2587.909748598300
 c239: K_a5_a8 - 1294 m_a5_proc_2 - 1294 m_a8_proc_2 + w_a8 - w_a5 >= 
       -2587.909748598300
 c240: K_a5_a9 - 1294 m_a5_proc_2 - 1294 m_a9_proc_2 + w_a9 - w_a5 >= 
       -2587.909748598300
 c241: - 1294 m_a6_proc_1 + w_a2 - w_a6 >= -1293.910110327365
 c242: K_a6_a0 - 1294 m_a0_proc_1 - 1294 m_a6_proc_1 + w_a0 - w_a6 >= 
       -2587.910110327365
 c243: K_a6_a1 - 1294 m_a1_proc_1 - 1294 m_a6_proc_1 + w_a1 - w_a6 >= 
       -2587.910110327365
 c244: K_a6_a3 - 1294 m_a3_proc_1 - 1294 m_a6_proc_1 + w_a3 - w_a6 >= 
       -2587.910110327365
 c245: K_a6_a4 - 1294 m_a4_proc_1 - 1294 m_a6_proc_1 + w_a4 - w_a6 >= 
       -2587.910110327365
 c246: K_a6_a7 - 1294 m_a6_proc_1 - 1294 m_a7_proc_1 + w_a7 - w_a6 >= 
       -2587.910110327365
 c247: K_a6_a8 - 1294 m_a6_proc_1 - 1294 m_a8_proc_1 + w_a8 - w_a6 >= 
       -2587.910110327365
 c248: K_a6_a9 - 1294 m_a6_proc_1 - 1294 m_a9_proc_1 + w_a9 - w_a6 >= 
       -2587.910110327365
 c249: - 1294 m_a6_proc_2 + w_a2 - w_a6 >= -1293.927382890215
 c250: K_a6_a0 - 1294 m_a0_proc_2 - 1294 m_a6_proc_2 + w_a0 - w_a6 >= 
       -2587.927382890215
 c251: K_a6_a1 - 1294 m_a1_proc_2 - 1294 m_a6_proc_2 + w_a1 - w_a6 >= 
       -2587.927382890215
 c252: K_a6_a2 - 1294 m_a2_proc_2 - 1294 m_a6_proc_2 + w_a2 - w_a6 >= 
       -2587.927382890215
 c253: K_a6_a4 - 1294 m_a4_proc_2 - 1294 m_a6_proc_2 + w_a4 - w_a6 >= 
       -2587.927382890215
 c254: K_a6_a5 - 1294 m_a5_proc_2 - 1294 m_a6_proc_2 + w_a5 - w_a6 >= 
       -2587.927382890215
 c255: K_a6_a7 - 1294 m_a6_proc_2 - 1294 m_a7_proc_2 + w_a7 - w_a6 >= 
       -2587.927382890215
 c256: K_a6_a8 - 1294 m_a6_proc_2 - 1294 m_a8_proc_2 + w_a8 - w_a6 >= 
       -2587.927382890215
 c257: K_a6_a9 - 1294 m_a6_proc_2 - 1294 m_a9_proc_2 + w_a9 - w_a6 >= 
       -2587.927382890215
 c258: - 1294 m_a7_proc_1 + w_a4 - w_a7 >= -1293.920238741183
 c259: K_a7_a0 - 1294 m_a0_proc_1 - 1294 m_a7_proc_1 + w_a0 - w_a7 >= 
       -2587.920238741183
 c260: K_a7_a1 - 1294 m_a1_proc_1 - 1294 m_a7_proc_1 + w_a1 - w_a7 >= 
       -2587.920238741183
 c261: K_a7_a3 - 1294 m_a3_proc_1 - 1294 m_a7_proc_1 + w_a3 - w_a7 >= 
       -2587.920238741183
 c262: K_a7_a4 - 1294 m_a4_proc_1 - 1294 m_a7_proc_1 + w_a4 - w_a7 >= 
       -2587.920238741183
 c263: K_a7_a6 - 1294 m_a6_proc_1 - 1294 m_a7_proc_1 + w_a6 - w_a7 >= 
       -2587.920238741183
 c264: K_a7_a8 - 1294 m_a7_proc_1 - 1294 m_a8_proc_1 + w_a8 - w_a7 >= 
       -2587.920238741183
 c265: K_a7_a9 - 1294 m_a7_proc_1 - 1294 m_a9_proc_1 + w_a9 - w_a7 >= 
       -2587.920238741183
 c266: - 1294 m_a7_proc_2 + w_a4 - w_a7 >= -1293.904503526858
 c267: K_a7_a0 - 1294 m_a0_proc_2 - 1294 m_a7_proc_2 + w_a0 - w_a7 >= 
       -2587.904503526858
 c268: K_a7_a1 - 1294 m_a1_proc_2 - 1294 m_a7_proc_2 + w_a1 - w_a7 >= 
       -2587.904503526858
 c269: K_a7_a2 - 1294 m_a2_proc_2 - 1294 m_a7_proc_2 + w_a2 - w_a7 >= 
       -2587.904503526858
 c270: K_a7_a4 - 1294 m_a4_proc_2 - 1294 m_a7_proc_2 + w_a4 - w_a7 >= 
       -2587.904503526858
 c271: K_a7_a5 - 1294 m_a5_proc_2 - 1294 m_a7_proc_2 + w_a5 - w_a7 >= 
       -2587.904503526858
 c272: K_a7_a6 - 1294 m_a6_proc_2 - 1294 m_a7_proc_2 + w_a6 - w_a7 >= 
       -2587.904503526858
 c273: K_a7_a8 - 1294 m_a7_proc_2 - 1294 m_a8_proc_2 + w_a8 - w_a7 >= 
       -2587.904503526858
 c274: K_a7_a9 - 1294 m_a7_proc_2 - 1294 m_a9_proc_2 + w_a9 - w_a7 >= 
       -2587.904503526858
 c275: - 1294 m_a8_proc_0 + w_a3 - w_a8 >= -1293.910291191897
 c276: - 1294 m_a8_proc_0 + w_a5 - w_a8 >= -1293.910291191897
 c277: - 1294 m_a8_proc_0 + w_a9 - w_a8 >= -1294.910291191897
 c278: K_a8_a0 - 1294 m_a0_proc_0 - 1294 m_a8_proc_0 + w_a0 - w_a8 >= 
       -2587.910291191897
 c279: K_a8_a1 - 1294 m_a1_proc_0 - 1294 m_a8_proc_0 + w_a1 - w_a8 >= 
       -2587.910291191897
 c280: K_a8_a2 - 1294 m_a2_proc_0 - 1294 m_a8_proc_0 + w_a2 - w_a8 >= 
       -2587.910291191897
 c281: K_a8_a3 - 1294 m_a3_proc_0 - 1294 m_a8_proc_0 + w_a3 - w_a8 >= 
       -2587.910291191897
 c282: K_a8_a4 - 1294 m_a4_proc_0 - 1294 m_a8_proc_0 + w_a4 - w_a8 >= 
       -2587.910291191897
 c283: K_a8_a5 - 1294 m_a5_proc_0 - 1294 m_a8_proc_0 + w_a5 - w_a8 >= 
       -2587.910291191897
 c284: K_a8_a9 - 1294 m_a8_proc_0 - 1294 m_a9_proc_0 + w_a9 - w_a8 >= 
       -2587.910291191897
 c285: - 1294 m_a8_proc_1 + w_a3 - w_a8 >= -1293.885060589618
 c286: - 1294 m_a8_proc_1 + w_a5 - w_a8 >= -1293.885060589618
 c287: - 1294 m_a8_proc_1 + w_a9 - w_a8 >= -1294.885060589618
 c288: K_a8_a0 - 1294 m_a0_proc_1 - 1294 m_a8_proc_1 + w_a0 - w_a8 >= 
       -2587.885060589618
 c289: K_a8_a1 - 1294 m_a1_proc_1 - 1294 m_a8_proc_1 + w_a1 - w_a8 >= 
       -2587.885060589618
 c290: K_a8_a3 - 1294 m_a3_proc_1 - 1294 m_a8_proc_1 + w_a3 - w_a8 >= 
       -2587.885060589618
 c291: K_a8_a4 - 1294 m_a4_proc_1 - 1294 m_a8_proc_1 + w_a4 - w_a8 >= 
       -2587.885060589618
 c292: K_a8_a6 - 1294 m_a6_proc_1 - 1294 m_a8_proc_1 + w_a6 - w_a8 >= 
       -2587.885060589618
 c293: K_a8_a7 - 1294 m_a7_proc_1 - 1294 m_a8_proc_1 + w_a7 - w_a8 >= 
       -2587.885060589618
 c294: K_a8_a9 - 1294 m_a8_proc_1 - 1294 m_a9_proc_1 + w_a9 - w_a8 >= 
       -2587.885060589618
 c295: - 1294 m_a8_proc_2 + w_a3 - w_a8 >= -1293.911918972689
 c296: - 1294 m_a8_proc_2 + w_a5 - w_a8 >= -1293.911918972689
 c297: - 1294 m_a8_proc_2 + w_a9 - w_a8 >= -1294.911918972689
 c298: K_a8_a0 - 1294 m_a0_proc_2 - 1294 m_a8_proc_2 + w_a0 - w_a8 >= 
       -2587.911918972689
 c299: K_a8_a1 - 1294 m_a1_proc_2 - 1294 m_a8_proc_2 + w_a1 - w_a8 >= 
       -2587.911918972689
 c300: K_a8_a2 - 1294 m_a2_proc_2 - 1294 m_a8_proc_2 + w_a2 - w_a8 >= 
       -2587.911918972689
 c301: K_a8_a4 - 1294 m_a4_proc_2 - 1294 m_a8_proc_2 + w_a4 - w_a8 >= 
       -2587.911918972689
 c302: K_a8_a5 - 1294 m_a5_proc_2 - 1294 m_a8_proc_2 + w_a5 - w_a8 >= 
       -2587.911918972689
 c303: K_a8_a6 - 1294 m_a6_proc_2 - 1294 m_a8_proc_2 + w_a6 - w_a8 >= 
       -2587.911918972689
 c304: K_a8_a7 - 1294 m_a7_proc_2 - 1294 m_a8_proc_2 + w_a7 - w_a8 >= 
       -2587.911918972689
 c305: K_a8_a9 - 1294 m_a8_proc_2 - 1294 m_a9_proc_2 + w_a9 - w_a8 >= 
       -2587.911918972689
 c306: - 1294 m_a9_proc_0 + w_a7 - w_a9 >= -1293.894917706638
 c307: - 1294 m_a9_proc_0 + w_a8 - w_a9 >= -1293.894917706638
 c308: K_a9_a0 - 1294 m_a0_proc_0 - 1294 m_a9_proc_0 + w_a0 - w_a9 >= 
       -2587.894917706638
 c309: K_a9_a1 - 1294 m_a1_proc_0 - 1294 m_a9_proc_0 + w_a1 - w_a9 >= 
       -2587.894917706638
 c310: K_a9_a2 - 1294 m_a2_proc_0 - 1294 m_a9_proc_0 + w_a2 - w_a9 >= 
       -2587.894917706638
 c311: K_a9_a3 - 1294 m_a3_proc_0 - 1294 m_a9_proc_0 + w_a3 - w_a9 >= 
       -2587.894917706638
 c312: K_a9_a4 - 1294 m_a4_proc_0 - 1294 m_a9_proc_0 + w_a4 - w_a9 >= 
       -2587.894917706638
 c313: K_a9_a5 - 1294 m_a5_proc_0 - 1294 m_a9_proc_0 + w_a5 - w_a9 >= 
       -2587.894917706638
 c314: K_a9_a8 - 1294 m_a8_proc_0 - 1294 m_a9_proc_0 + w_a8 - w_a9 >= 
       -2587.894917706638
 c315: - 1294 m_a9_proc_1 + w_a7 - w_a9 >= -1293.891933441852
 c316: - 1294 m_a9_proc_1 + w_a8 - w_a9 >= -1293.891933441852
 c317: K_a9_a0 - 1294 m_a0_proc_1 - 1294 m_a9_proc_1 + w_a0 - w_a9 >= 
       -2587.891933441852
 c318: K_a9_a1 - 1294 m_a1_proc_1 - 1294 m_a9_proc_1 + w_a1 - w_a9 >= 
       -2587.891933441852
 c319: K_a9_a3 - 1294 m_a3_proc_1 - 1294 m_a9_proc_1 + w_a3 - w_a9 >= 
       -2587.891933441852
 c320: K_a9_a4 - 1294 m_a4_proc_1 - 1294 m_a9_proc_1 + w_a4 - w_a9 >= 
       -2587.891933441852
 c321: K_a9_a6 - 1294 m_a6_proc_1 - 1294 m_a9_proc_1 + w_a6 - w_a9 >= 
       -2587.891933441852
 c322: K_a9_a7 - 1294 m_a7_proc_1 - 1294 m_a9_proc_1 + w_a7 - w_a9 >= 
       -2587.891933441852
 c323: K_a9_a8 - 1294 m_a8_proc_1 - 1294 m_a9_proc_1 + w_a8 - w_a9 >= 
       -2587.891933441852
 c324: - 1294 m_a9_proc_2 + w_a7 - w_a9 >= -1293.905950443118
 c325: - 1294 m_a9_proc_2 + w_a8 - w_a9 >= -1293.905950443118
 c326: K_a9_a0 - 1294 m_a0_proc_2 - 1294 m_a9_proc_2 + w_a0 - w_a9 >= 
       -2587.905950443118
 c327: K_a9_a1 - 1294 m_a1_proc_2 - 1294 m_a9_proc_2 + w_a1 - w_a9 >= 
       -2587.905950443118
 c328: K_a9_a2 - 1294 m_a2_proc_2 - 1294 m_a9_proc_2 + w_a2 - w_a9 >= 
       -2587.905950443118
 c329: K_a9_a4 - 1294 m_a4_proc_2 - 1294 m_a9_proc_2 + w_a4 - w_a9 >= 
       -2587.905950443118
 c330: K_a9_a5 - 1294 m_a5_proc_2 - 1294 m_a9_proc_2 + w_a5 - w_a9 >= 
       -2587.905950443118
 c331: K_a9_a6 - 1294 m_a6_proc_2 - 1294 m_a9_proc_2 + w_a6 - w_a9 >= 
       -2587.905950443118
 c332: K_a9_a7 - 1294 m_a7_proc_2 - 1294 m_a9_proc_2 + w_a7 - w_a9 >= 
       -2587.905950443118
 c333: K_a9_a8 - 1294 m_a8_proc_2 - 1294 m_a9_proc_2 + w_a8 - w_a9 >= 
       -2587.905950443118
 c334: z - 0.000000000001 K_a8_a3 + 0.000000000782 m_a3_proc_1
       - 0.001008065115 m_a8_proc_0 - 0.000786781280 m_a8_proc_1
       - 0.001026694634 m_a8_proc_2 <= 0.000000001564

Bounds
 -inf <= K_a0_a1 <= 1000000000
 -inf <= K_a0_a2 <= 1000000000
 -inf <= K_a0_a3 <= 1000000000
 -inf <= K_a0_a4 <= 1000000000
 -inf <= K_a0_a5 <= 1000000000
 -inf <= K_a0_a6 <= 1000000000
 -inf <= K_a0_a7 <= 1000000000
 -inf <= K_a0_a8 <= 1000000000
 -inf <= K_a0_a9 <= 1000000000
 -inf <= K_a1_a0 <= 1000000000
 -inf <= K_a1_a2 <= 1000000000
 -inf <= K_a1_a3 <= 1000000000
 -inf <= K_a1_a4 <= 1000000000
 -inf <= K_a1_a5 <= 1000000000
 -inf <= K_a1_a6 <= 1000000000
 -inf <= K_a1_a7 <= 1000000000
 -inf <= K_a1_a8 <= 1000000000
 -inf <= K_a1_a9 <= 1000000000
 -inf <= K_a2_a0 <= 1000000000
 -inf <= K_a2_a1 <= 1000000000
 -inf <= K_a2_a3 <= 1000000000
 -inf <= K_a2_a4 <= 1000000000
 -inf <= K_a2_a5 <= 1000000000
 -inf <= K_a2_a6 <= 1000000000
 -inf <= K_a2_a7 <= 1000000000
 -inf <= K_a2_a8 <= 1000000000
 -inf <= K_a2_a9 <= 1000000000
 -inf <= K_a3_a0 <= 1000000000
 -inf <= K_a3_a1 <= 1000000000
 -inf <= K_a3_a2 <= 1000000000
 -inf <= K_a3_a4 <= 1000000000
 -inf <= K_a3_a5 <= 1000000000
 -inf <= K_a3_a6 <= 1000000000
 -inf <= K_a3_a7 <= 1000000000
 -inf <= K_a3_a8 <= 1000000000
 -inf <= K_a3_a9 <= 1000000000
 -inf <= K_a4_a0 <= 1000000000
 -inf <= K_a4_a1 <= 1000000000
 -inf <= K_a4_a2 <= 1000000000
 -inf <= K_a4_a3 <= 1000000000
 -inf <= K_a4_a5 <= 1000000000
 -inf <= K_a4_a6 <= 1000000000
 -inf <= K_a4_a7 <= 1000000000
 -inf <= K_a4_a8 <= 1000000000
 -inf <= K_a4_a9 <= 1000000000
 -inf <= K_a5_a0 <= 1000000000
 -inf <= K_a5_a1 <= 1000000000
 -inf <= K_a5_a2 <= 1000000000
 -inf <= K_a5_a3 <= 1000000000
 -inf <= K_a5_a4 <= 1000000000
 -inf <= K_a5_a6 <= 1000000000
 -inf <= K_a5_a7 <= 1000000000
 -inf <= K_a5_a8 <= 1000000000
 -inf <= K_a5_a9 <= 1000000000
 -inf <= K_a6_a0 <= 1000000000
 -inf <= K_a6_a1 <= 1000000000
 -inf <= K_a6_a2 <= 1000000000
 -inf <= K_a6_a3 <= 1000000000
 -inf <= K_a6_a4 <= 1000000000
 -inf <= K_a6_a5 <= 1000000000
 -inf <= K_a6_a7 <= 1000000000
 -inf <= K_a6_a8 <= 1000000000
 -inf <= K_a6_a9 <= 1000000000
 -inf <= K_a7_a0 <= 1000000000
 -inf <= K_a7_a1 <= 1000000000
 -inf <= K_a7_a2 <= 1000000000
 -inf <= K_a7_a3 <= 1000000000
 -inf <= K_a7_a4 <= 1000000000
 -inf <= K_a7_a5 <= 1000000000
 -inf <= K_a7_a6 <= 1000000000
 -inf <= K_a7_a8 <= 1000000000
 -inf <= K_a7_a9 <= 1000000000
 -inf <= K_a8_a0 <= 1000000000
 -inf <= K_a8_a1 <= 1000000000
 -inf <= K_a8_a2 <= 1000000000
 -inf <= K_a8_a3 <= 1000000000
 -inf <= K_a8_a4 <= 1000000000
 -inf <= K_a8_a5 <= 1000000000
 -inf <= K_a8_a6 <= 1000000000
 -inf <= K_a8_a7 <= 1000000000
 -inf <= K_a8_a9 <= 1000000000
 -inf <= K_a9_a0 <= 1000000000
 -inf <= K_a9_a1 <= 1000000000
 -inf <= K_a9_a2 <= 1000000000
 -inf <= K_a9_a3 <= 1000000000
 -inf <= K_a9_a4 <= 1000000000
 -inf <= K_a9_a5 <= 1000000000
 -inf <= K_a9_a6 <= 1000000000
 -inf <= K_a9_a7 <= 1000000000
 -inf <= K_a9_a8 <= 1000000000
 0 <= m_a0_proc_0 <= 1
 0 <= m_a0_proc_1 <= 1
 0 <= m_a0_proc_2 <= 1
 0 <= m_a1_proc_0 <= 1
 0 <= m_a1_proc_1 <= 1
 0 <= m_a1_proc_2 <= 1
 0 <= m_a2_proc_0 <= 1
 0 <= m_a2_proc_2 <= 1
 0 <= m_a3_proc_0 <= 1
 0 <= m_a3_proc_1 <= 1
 0 <= m_a4_proc_0 <= 1
 0 <= m_a4_proc_1 <= 1
 0 <= m_a4_proc_2 <= 1
 0 <= m_a5_proc_0 <= 1
 0 <= m_a5_proc_2 <= 1
 0 <= m_a6_proc_1 <= 1
 0 <= m_a6_proc_2 <= 1
 0 <= m_a7_proc_1 <= 1
 0 <= m_a7_proc_2 <= 1
 0 <= m_a8_proc_0 <= 1
 0 <= m_a8_proc_1 <= 1
 0 <= m_a8_proc_2 <= 1
 0 <= m_a9_proc_0 <= 1
 0 <= m_a9_proc_1 <= 1
 0 <= m_a9_proc_2 <= 1

Binaries
 m_a0_proc_0 m_a0_proc_1 m_a0_proc_2 m_a1_proc_0 m_a1_proc_1 m_a1_proc_2
 m_a2_proc_0 m_a2_proc_2 m_a3_proc_0 m_a3_proc_1 m_a4_proc_0 m_a4_proc_1
 m_a4_proc_2 m_a5_proc_0 m_a5_proc_2 m_a6_proc_1 m_a6_proc_2 m_a7_proc_1
 m_a7_proc_2 m_a8_proc_0 m_a8_proc_1 m_a8_proc_2 m_a9_proc_0 m_a9_proc_1
 m_a9_proc_2

Generals
 K_a0_a1 K_a0_a2 K_a0_a3 K_a0_a4 K_a0_a5 K_a0_a6 K_a0_a7 K_a0_a8 K_a0_a9 K_a1_a0
 K_a1_a2 K_a1_a3 K_a1_a4 K_a1_a5 K_a1_a6 K_a1_a7 K_a1_a8 K_a1_a9 K_a2_a0 K_a2_a1
 K_a2_a3 K_a2_a4 K_a2_a5 K_a2_a6 K_a2_a7 K_a2_a8 K_a2_a9 K_a3_a0 K_a3_a1 K_a3_a2
 K_a3_a4 K_a3_a5 K_a3_a6 K_a3_a7 K_a3_a8 K_a3_a9 K_a4_a0 K_a4_a1 K_a4_a2 K_a4_a3
 K_a4_a5 K_a4_a6 K_a4_a7 K_a4_a8 K_a4_a9 K_a5_a0 K_a5_a1 K_a5_a2 K_a5_a3 K_a5_a4
 K_a5_a6 K_a5_a7 K_a5_a8 K_a5_a9 K_a6_a0 K_a6_a1 K_a6_a2 K_a6_a3 K_a6_a4 K_a6_a5
 K_a6_a7 K_a6_a8 K_a6_a9 K_a7_a0 K_a7_a1 K_a7_a2 K_a7_a3 K_a7_a4 K_a7_a5 K_a7_a6
 K_a7_a8 K_a7_a9 K_a8_a0 K_a8_a1 K_a8_a2 K_a8_a3 K_a8_a4 K_a8_a5 K_a8_a6 K_a8_a7
 K_a8_a9 K_a9_a0 K_a9_a1 K_a9_a2 K_a9_a3 K_a9_a4 K_a9_a5 K_a9_a6 K_a9_a7 K_a9_a8
End
