benchmark/results/graph__10-1000-0.10-03_2/graph__10-1000-0.10-03_2_Quinton_Benders_master.txt
solution for: Quinton Benders_master
objective: 0.000182582
status: OPTIMAL_SOLUTION(2)
K_a0_a1=-1293
K_a0_a3=1294
K_a0_a5=1295
K_a0_a7=1294
K_a0_a8=1000000000
K_a0_a9=1000000000
K_a1_a0=1294
K_a1_a2=-1294
K_a1_a3=1294
K_a1_a4=1294
K_a1_a5=1
K_a1_a6=1294
K_a1_a7=1294
K_a1_a8=1000000000
K_a1_a9=1000000000
K_a2_a0=1
K_a2_a1=1295
K_a2_a3=2589
K_a2_a4=1
K_a2_a5=1295
K_a2_a6=1
K_a2_a7=1295
K_a2_a8=1000000000
K_a2_a9=1000000000
K_a3_a0=-1293
K_a3_a1=-1293
K_a3_a2=-2588
K_a3_a4=1294
K_a3_a5=1295
K_a3_a6=1295
K_a3_a7=1
K_a3_a8=1000000000
K_a3_a9=1000000000
K_a4_a0=1
K_a4_a1=-1293
K_a4_a3=-1293
K_a4_a5=1295
K_a4_a6=1
K_a4_a7=1295
K_a4_a8=1000000000
K_a4_a9=1000000000
K_a5_a0=-1294
K_a5_a2=-1294
K_a5_a3=-1294
K_a5_a4=-1294
K_a5_a6=1294
K_a5_a7=2588
K_a5_a8=1000000000
K_a5_a9=1000000000
K_a6_a0=1
K_a6_a1=-1293
K_a6_a3=-1294
K_a6_a5=-1293
K_a6_a7=1294
K_a6_a8=1000000000
K_a6_a9=1000000000
K_a7_a0=-1293
K_a7_a1=-1293
K_a7_a2=-1294
K_a7_a4=-1294
K_a7_a5=-2587
K_a7_a6=-1293
K_a7_a8=1000000000
K_a7_a9=1000000000
K_a8_a0=-999999999
K_a8_a1=-999999999
K_a8_a2=-999999999
K_a8_a3=-999999999
K_a8_a4=-999999999
K_a8_a5=-999999999
K_a8_a6=-999999999
K_a8_a7=-999999999
K_a8_a9=1
K_a9_a0=-999999999
K_a9_a1=-999999999
K_a9_a2=-999999999
K_a9_a3=-999999999
K_a9_a4=-999999999
K_a9_a5=-999999999
K_a9_a6=-999999999
K_a9_a7=-999999999
m_a0_proc_2=1
m_a1_proc_0=1
m_a2_proc_2=1
m_a3_proc_1=1
m_a4_proc_2=1
m_a5_proc_0=1
m_a6_proc_2=1
m_a7_proc_1=1
m_a8_proc_1=1
m_a9_proc_1=1
z=0.000
w_a0=999999998.649
w_a1=999999998.556
w_a2=999999999.470
w_a3=999999999.303
w_a4=999999999.381
w_a5=999999998.381
w_a6=999999998.718
w_a7=999999999.223
w_a8=0.108
